param TAU: 	0	1	2   3   4:= 
0		   100 100  2  100 100
1		   100 100	3  100 100
2  		   100 100 100  3   4
3		   100 100 100 100 100
4          100 100 100 100 100;

param: src snk :=
1       0   3  
2       1   4 ; 

param int: 0 1 2 3 4 :=
1          . 1 2 . 4
2          0 . 2 3 .;